
n_res = 6;
rcap = [31, 28, 29, 27, 914, 786];
rtype = [1, 1, 1, 1, 2, 2];
n_tasks = 50;
modes =  [{1, 2, 3, 4, 5, 6}, {7, 8, 9, 10, 11, 12}, {13, 14, 15, 16, 17, 18}, {19, 20, 21, 22, 23, 24}, {25, 26, 27, 28, 29, 30}, {31, 32, 33, 34, 35, 36}, {37, 38, 39, 40, 41, 42}, {43, 44, 45, 46, 47, 48}, {49, 50, 51, 52, 53, 54}, {55, 56, 57, 58, 59, 60}, {61, 62, 63, 64, 65, 66}, {67, 68, 69, 70, 71, 72}, {73, 74, 75, 76, 77, 78}, {79, 80, 81, 82, 83, 84}, {85, 86, 87, 88, 89, 90}, {91, 92, 93, 94, 95, 96}, {97, 98, 99, 100, 101, 102}, {103, 104, 105, 106, 107, 108}, {109, 110, 111, 112, 113, 114}, {115, 116, 117, 118, 119, 120}, {121, 122, 123, 124, 125, 126}, {127, 128, 129, 130, 131, 132}, {133, 134, 135, 136, 137, 138}, {139, 140, 141, 142, 143, 144}, {145, 146, 147, 148, 149, 150}, {151, 152, 153, 154, 155, 156}, {157, 158, 159, 160, 161, 162}, {163, 164, 165, 166, 167, 168}, {169, 170, 171, 172, 173, 174}, {175, 176, 177, 178, 179, 180}, {181, 182, 183, 184, 185, 186}, {187, 188, 189, 190, 191, 192}, {193, 194, 195, 196, 197, 198}, {199, 200, 201, 202, 203, 204}, {205, 206, 207, 208, 209, 210}, {211, 212, 213, 214, 215, 216}, {217, 218, 219, 220, 221, 222}, {223, 224, 225, 226, 227, 228}, {229, 230, 231, 232, 233, 234}, {235, 236, 237, 238, 239, 240}, {241, 242, 243, 244, 245, 246}, {247, 248, 249, 250, 251, 252}, {253, 254, 255, 256, 257, 258}, {259, 260, 261, 262, 263, 264}, {265, 266, 267, 268, 269, 270}, {271, 272, 273, 274, 275, 276}, {277, 278, 279, 280, 281, 282}, {283, 284, 285, 286, 287, 288}, {289, 290, 291, 292, 293, 294}, {295, 296, 297, 298, 299, 300}];
succ =  [{49, 47, 45, 35, 34, 30, 29, 23, 20, 16, 11}, {48, 45, 44, 30, 29, 28, 27, 26, 24, 23, 21, 19}, {48, 47, 46, 34, 22, 15, 9}, {49, 44, 43, 32, 29, 28, 27, 22, 18}, {47, 45, 42, 27, 26, 20, 19}, {47, 46, 44, 42, 40, 39, 35, 34, 30, 26, 25}, {48, 42, 41, 34, 30, 29, 26, 21}, {48, 43, 32, 28, 27, 26, 23}, {45, 44, 43, 42, 41, 33, 32, 27, 26}, {48, 47, 46, 45, 43, 41, 34, 32, 27}, {43, 41, 40, 39, 32, 28, 22}, {44, 34, 33, 31, 29, 28, 27}, {45, 42, 41, 34, 30, 29, 26}, {49, 44, 37, 34, 33, 30, 27}, {43, 39, 38, 32, 28}, {46, 36, 27, 26}, {47, 42, 41, 39, 38, 37, 36}, {41, 37, 34, 33}, {41, 39, 37, 34}, {46, 44, 38, 32}, {43, 40, 37, 32}, {33, 26}, {41, 40, 33}, {40, 37, 32}, {37, 33}, {38, 37}, {40, 39}, {42, 37}, {40, 39}, {38, 36}, {39, 37}, {36}, {36}, {38}, {41}, {}, {}, {}, {}, {}, {}, {}, {}, {}, {}, {}, {}, {}, {}, {}];
n_opt = 300;
dur = [3, 4, 5, 7, 28, 30, 8, 13, 20, 21, 24, 28, 6, 7, 8, 9, 13, 27, 7, 9, 10, 15, 17, 20, 5, 6, 16, 18, 20, 26, 3, 10, 11, 14, 18, 21, 1, 16, 17, 21, 24, 25, 6, 13, 14, 15, 22, 25, 3, 13, 26, 27, 28, 29, 11, 13, 16, 21, 22, 27, 4, 5, 16, 20, 26, 27, 3, 15, 17, 18, 26, 27, 1, 9, 12, 13, 21, 23, 4, 7, 9, 12, 22, 23, 2, 7, 8, 17, 22, 26, 6, 12, 19, 23, 25, 27, 8, 15, 20, 22, 23, 24, 1, 9, 11, 13, 24, 25, 5, 6, 10, 22, 23, 29, 1, 2, 5, 16, 21, 23, 5, 7, 16, 19, 25, 30, 17, 18, 19, 27, 29, 30, 16, 18, 19, 20, 25, 30, 2, 8, 9, 10, 17, 18, 9, 11, 15, 18, 25, 26, 5, 9, 14, 15, 17, 19, 3, 11, 15, 26, 27, 30, 2, 6, 14, 18, 23, 25, 5, 6, 15, 21, 25, 29, 1, 2, 5, 6, 8, 17, 9, 12, 13, 14, 15, 23, 2, 5, 11, 12, 19, 25, 12, 23, 24, 26, 29, 30, 14, 15, 16, 18, 21, 22, 3, 10, 11, 12, 17, 22, 7, 18, 19, 24, 25, 26, 2, 9, 16, 23, 25, 28, 2, 11, 17, 23, 27, 28, 4, 5, 10, 12, 14, 26, 9, 19, 20, 24, 25, 30, 3, 5, 8, 10, 12, 30, 4, 7, 8, 9, 13, 26, 1, 5, 12, 16, 18, 29, 4, 12, 14, 19, 20, 24, 1, 14, 15, 19, 20, 23, 2, 4, 7, 16, 19, 26, 7, 8, 12, 17, 20, 24, 3, 4, 6, 9, 12, 19, 3, 9, 11, 24, 25, 26, 4, 6, 13, 15, 20, 25];
rreq = [|5, 4, 3, 3, 2, 2, 4, 3, 3, 3, 3, 3, 5, 5, 5, 5, 5, 5, 4, 3, 3, 3, 2, 2, 5, 5, 5, 5, 5, 5, 4, 4, 4, 4, 3, 3, 1, 1, 1, 1, 1, 1, 5, 4, 3, 3, 2, 2, 5, 4, 4, 4, 4, 4, 5, 3, 3, 3, 1, 1, 4, 3, 3, 3, 2, 1, 3, 2, 2, 2, 1, 1, 5, 5, 5, 5, 5, 5, 4, 4, 3, 2, 2, 1, 5, 4, 4, 4, 4, 4, 4, 3, 3, 2, 2, 1, 4, 4, 3, 3, 1, 1, 4, 3, 3, 2, 1, 1, 3, 2, 2, 2, 1, 1, 5, 4, 3, 3, 3, 2, 3, 2, 2, 1, 1, 1, 5, 4, 4, 3, 3, 2, 4, 4, 4, 4, 4, 4, 4, 4, 3, 2, 1, 1, 3, 3, 3, 3, 3, 3, 4, 3, 3, 2, 1, 1, 4, 3, 3, 2, 2, 2, 2, 1, 1, 1, 1, 1, 4, 3, 2, 2, 1, 1, 4, 4, 4, 3, 2, 2, 4, 3, 3, 3, 2, 1, 4, 4, 4, 4, 3, 3, 4, 4, 3, 2, 1, 1, 2, 1, 1, 1, 1, 1, 1, 1, 1, 1, 1, 1, 5, 4, 4, 4, 3, 3, 2, 2, 2, 2, 2, 2, 5, 4, 4, 4, 3, 3, 2, 1, 1, 1, 1, 1, 4, 3, 3, 2, 2, 2, 3, 3, 2, 2, 1, 1, 3, 2, 2, 2, 2, 2, 5, 4, 3, 3, 3, 2, 2, 2, 2, 2, 2, 2, 3, 2, 2, 2, 2, 2, 4, 4, 4, 4, 4, 4, 2, 1, 1, 1, 1, 1, 4, 4, 3, 3, 3, 2, 4, 4, 3, 3, 1, 1, 1, 1, 1, 1, 1, 1
 |3, 2, 2, 2, 2, 2, 2, 2, 2, 2, 2, 2, 2, 2, 2, 2, 1, 1, 4, 4, 4, 4, 4, 4, 4, 4, 4, 4, 4, 4, 4, 4, 4, 3, 3, 2, 2, 2, 2, 2, 1, 1, 4, 4, 4, 4, 4, 4, 4, 4, 4, 3, 2, 2, 4, 4, 4, 4, 4, 4, 3, 3, 3, 3, 3, 3, 4, 3, 3, 2, 2, 2, 2, 1, 1, 1, 1, 1, 5, 4, 4, 3, 3, 3, 2, 2, 2, 1, 1, 1, 3, 3, 3, 3, 3, 3, 1, 1, 1, 1, 1, 1, 4, 4, 4, 3, 3, 3, 5, 4, 4, 3, 3, 3, 3, 3, 3, 3, 3, 3, 3, 3, 3, 3, 3, 3, 5, 5, 5, 5, 5, 5, 3, 3, 2, 2, 2, 1, 3, 3, 3, 2, 2, 1, 4, 4, 4, 3, 3, 3, 4, 4, 3, 2, 1, 1, 4, 3, 2, 2, 1, 1, 4, 4, 4, 4, 4, 4, 3, 3, 3, 2, 2, 1, 5, 4, 4, 3, 2, 2, 2, 1, 1, 1, 1, 1, 5, 4, 4, 3, 3, 2, 3, 3, 3, 3, 3, 3, 2, 2, 2, 1, 1, 1, 4, 3, 3, 3, 3, 3, 4, 3, 2, 2, 2, 1, 5, 3, 3, 2, 1, 1, 2, 2, 2, 2, 2, 2, 5, 4, 4, 3, 3, 3, 2, 2, 2, 1, 1, 1, 5, 4, 4, 4, 4, 4, 1, 1, 1, 1, 1, 1, 5, 4, 4, 3, 3, 2, 5, 4, 4, 4, 3, 3, 2, 2, 2, 2, 2, 2, 5, 5, 5, 5, 5, 5, 5, 5, 5, 5, 5, 5, 4, 4, 4, 4, 4, 4, 4, 4, 4, 4, 4, 4, 4, 4, 4, 3, 3, 3
 |4, 4, 4, 4, 4, 4, 3, 2, 2, 2, 2, 2, 3, 2, 2, 1, 1, 1, 5, 4, 4, 3, 3, 3, 3, 3, 3, 3, 3, 3, 2, 1, 1, 1, 1, 1, 4, 4, 4, 4, 3, 3, 4, 3, 3, 2, 2, 1, 5, 5, 5, 5, 5, 5, 5, 4, 4, 4, 3, 3, 3, 2, 2, 2, 2, 2, 4, 3, 3, 2, 1, 1, 4, 4, 4, 4, 4, 4, 2, 2, 2, 2, 1, 1, 2, 2, 2, 2, 2, 2, 5, 4, 3, 3, 2, 2, 3, 3, 3, 3, 3, 3, 4, 3, 3, 3, 3, 3, 3, 2, 2, 2, 1, 1, 3, 3, 3, 2, 2, 2, 5, 4, 4, 3, 2, 2, 5, 4, 4, 4, 4, 4, 4, 3, 3, 3, 2, 2, 3, 2, 2, 1, 1, 1, 5, 4, 4, 4, 3, 3, 3, 2, 2, 2, 2, 2, 1, 1, 1, 1, 1, 1, 1, 1, 1, 1, 1, 1, 4, 3, 3, 2, 2, 2, 2, 2, 2, 2, 2, 2, 4, 4, 4, 3, 3, 3, 5, 4, 4, 4, 4, 4, 5, 5, 5, 5, 5, 5, 4, 3, 3, 3, 3, 3, 2, 2, 2, 2, 1, 1, 4, 3, 3, 3, 2, 2, 5, 4, 4, 4, 4, 4, 5, 5, 5, 5, 5, 5, 5, 4, 4, 3, 3, 2, 4, 3, 3, 3, 2, 2, 5, 4, 4, 3, 3, 3, 3, 2, 2, 1, 1, 1, 5, 4, 4, 3, 3, 2, 2, 1, 1, 1, 1, 1, 3, 3, 3, 3, 3, 3, 4, 3, 3, 3, 2, 1, 3, 3, 2, 2, 2, 1, 4, 3, 3, 3, 3, 3, 2, 2, 2, 2, 2, 2, 3, 3, 3, 3, 2, 2
 |5, 4, 3, 2, 2, 1, 2, 2, 2, 1, 1, 1, 3, 2, 2, 2, 2, 2, 4, 3, 3, 3, 1, 1, 4, 4, 4, 4, 4, 4, 4, 3, 3, 3, 3, 3, 5, 4, 4, 4, 3, 3, 4, 3, 3, 2, 1, 1, 5, 4, 4, 4, 4, 4, 2, 2, 2, 2, 2, 2, 3, 3, 3, 2, 1, 1, 3, 3, 3, 3, 3, 3, 1, 1, 1, 1, 1, 1, 3, 2, 2, 2, 2, 2, 5, 4, 3, 2, 2, 1, 4, 4, 4, 4, 4, 4, 2, 2, 2, 2, 1, 1, 3, 2, 2, 2, 2, 2, 5, 5, 5, 5, 5, 5, 4, 4, 3, 3, 2, 1, 1, 1, 1, 1, 1, 1, 3, 3, 3, 3, 3, 3, 5, 4, 4, 3, 3, 3, 4, 3, 3, 3, 3, 3, 4, 4, 4, 4, 3, 3, 3, 3, 3, 3, 3, 3, 2, 1, 1, 1, 1, 1, 4, 4, 4, 4, 4, 4, 3, 3, 3, 3, 3, 3, 4, 3, 3, 2, 2, 1, 2, 1, 1, 1, 1, 1, 5, 4, 4, 4, 3, 3, 5, 5, 5, 5, 5, 5, 2, 2, 2, 2, 2, 2, 4, 4, 4, 4, 3, 3, 4, 4, 4, 4, 3, 3, 4, 3, 3, 3, 3, 3, 5, 4, 4, 4, 3, 3, 1, 1, 1, 1, 1, 1, 3, 3, 3, 2, 2, 1, 2, 2, 2, 1, 1, 1, 4, 4, 4, 4, 4, 4, 5, 5, 5, 5, 5, 5, 4, 3, 2, 2, 1, 1, 4, 3, 3, 3, 1, 1, 3, 3, 3, 3, 2, 2, 4, 4, 4, 3, 3, 2, 5, 4, 4, 3, 2, 2, 2, 2, 2, 1, 1, 1, 3, 2, 2, 2, 2, 2
 |22, 22, 16, 14, 11, 10, 24, 23, 21, 17, 12, 12, 29, 28, 28, 27, 25, 24, 19, 15, 12, 10, 9, 5, 22, 19, 16, 13, 9, 8, 7, 7, 7, 7, 7, 7, 15, 14, 14, 14, 13, 13, 18, 13, 9, 9, 5, 3, 24, 23, 21, 20, 17, 16, 26, 26, 26, 25, 24, 24, 23, 22, 22, 21, 21, 21, 22, 19, 16, 13, 8, 8, 19, 19, 19, 18, 18, 18, 16, 16, 13, 9, 4, 4, 11, 11, 10, 8, 6, 5, 29, 29, 29, 28, 28, 27, 13, 11, 9, 8, 7, 5, 24, 23, 23, 22, 21, 21, 14, 12, 12, 12, 10, 10, 14, 13, 12, 8, 4, 2, 11, 11, 11, 11, 10, 10, 25, 20, 15, 14, 5, 2, 21, 18, 16, 12, 6, 4, 14, 14, 14, 14, 14, 14, 15, 15, 14, 13, 12, 12, 28, 27, 26, 26, 25, 25, 26, 25, 22, 21, 17, 15, 12, 12, 10, 9, 8, 8, 19, 16, 14, 11, 10, 7, 3, 3, 3, 3, 2, 2, 19, 18, 17, 16, 15, 15, 19, 18, 16, 16, 14, 12, 19, 16, 15, 14, 13, 11, 15, 15, 15, 15, 15, 15, 21, 20, 20, 20, 19, 19, 29, 27, 27, 26, 26, 25, 18, 16, 14, 13, 10, 9, 23, 18, 17, 10, 9, 5, 28, 27, 26, 26, 25, 25, 28, 24, 21, 19, 15, 13, 29, 24, 20, 14, 9, 5, 22, 21, 17, 16, 14, 11, 25, 25, 23, 19, 18, 15, 27, 25, 25, 23, 23, 22, 23, 23, 23, 23, 22, 22, 8, 8, 8, 8, 8, 8, 25, 22, 16, 10, 9, 3, 28, 28, 25, 24, 21, 21, 15, 15, 15, 15, 15, 15, 22, 21, 21, 21, 20, 20
 |13, 12, 12, 12, 11, 11, 30, 27, 26, 25, 24, 23, 11, 10, 9, 9, 7, 7, 12, 10, 9, 6, 5, 1, 1, 1, 1, 1, 1, 1, 17, 16, 14, 13, 11, 10, 24, 22, 19, 16, 9, 8, 14, 12, 10, 10, 8, 6, 5, 3, 3, 2, 2, 1, 3, 3, 2, 2, 2, 1, 29, 28, 27, 26, 25, 24, 28, 27, 27, 27, 27, 26, 16, 15, 14, 14, 12, 11, 20, 20, 16, 14, 10, 7, 11, 9, 7, 6, 6, 4, 25, 24, 22, 21, 21, 19, 22, 18, 17, 17, 14, 12, 16, 13, 12, 10, 7, 1, 22, 21, 19, 19, 17, 16, 12, 12, 11, 8, 8, 7, 19, 19, 15, 12, 11, 7, 25, 23, 20, 19, 16, 13, 19, 16, 14, 12, 11, 9, 29, 27, 24, 20, 19, 16, 23, 19, 18, 16, 14, 11, 12, 11, 10, 10, 9, 8, 12, 11, 11, 10, 9, 9, 12, 12, 12, 12, 12, 11, 26, 25, 25, 24, 24, 24, 15, 14, 11, 11, 7, 7, 24, 21, 20, 19, 18, 16, 8, 8, 8, 8, 8, 8, 11, 11, 11, 11, 10, 10, 19, 17, 14, 10, 9, 6, 28, 27, 25, 24, 23, 22, 20, 19, 19, 19, 19, 19, 22, 19, 18, 16, 14, 14, 10, 10, 8, 5, 4, 2, 28, 28, 28, 28, 28, 28, 21, 19, 18, 15, 15, 13, 23, 21, 16, 15, 8, 6, 7, 7, 6, 6, 6, 5, 4, 4, 4, 4, 4, 4, 18, 14, 13, 10, 9, 6, 6, 7, 6, 5, 4, 3, 14, 13, 12, 11, 12, 12, 11, 10, 10, 8, 7, 5, 20, 19, 17, 17, 15, 13, 20, 19, 19, 19, 18, 17, 29, 26, 24, 23, 21, 20|];